Version identifier: 20.1.0.0 | 2020-11-10 | 9bedb6d68
Tried aggregator 2 times.
MIP Presolve eliminated 1691 rows and 904 columns.
MIP Presolve modified 3500 coefficients.
Aggregator did 177 substitutions.
Reduced MIP has 1538 rows, 1326 columns, and 4875 nonzeros.
Reduced MIP has 387 binaries, 939 generals, 0 SOSs, and 0 indicators.
Presolve time = 0.02 sec. (7.76 ticks)
Found incumbent of value 75.000000 after 0.03 sec. (13.38 ticks)
Probing fixed 40 vars, tightened 325 bounds.
Probing time = 0.00 sec. (1.96 ticks)
Tried aggregator 2 times.
Detecting symmetries...
MIP Presolve eliminated 586 rows and 40 columns.
MIP Presolve modified 115 coefficients.
Aggregator did 14 substitutions.
Reduced MIP has 938 rows, 1272 columns, and 3063 nonzeros.
Reduced MIP has 440 binaries, 832 generals, 0 SOSs, and 0 indicators.
Presolve time = 0.01 sec. (4.53 ticks)
Probing time = 0.00 sec. (0.23 ticks)
Clique table members: 1.
MIP emphasis: balance optimality and feasibility.
MIP search method: dynamic search.
Parallel mode: deterministic, using up to 24 threads.
Root relaxation solution time = 0.01 sec. (3.19 ticks)

        Nodes                                         Cuts/
   Node  Left     Objective  IInf  Best Integer    Best Bound    ItCnt     Gap

*     0+    0                           75.0000        0.0000           100.00%
      0     0        0.0000    46       75.0000        0.0000      265  100.00%
      0     0        1.2222    72       75.0000     Cuts: 173      405   98.37%
*     0+    0                           20.0000        1.2222            93.89%
      0     0        2.0417   192       20.0000      Cuts: 74      812   89.79%
      0     0        2.0556   277       20.0000      Cuts: 74      882   89.72%
      0     0        2.1429   233       20.0000      Cuts: 84      943   89.29%
      0     0        2.1429   238       20.0000      Cuts: 63      992   89.29%
*     0+    0                           13.0000        2.1429            83.52%
      0     0        cutoff             13.0000       13.0000     1011    0.00%
Elapsed time = 0.53 sec. (106.79 ticks, tree = 0.01 MB, solutions = 3)

Implied bound cuts applied:  13
Flow cuts applied:  4
Mixed integer rounding cuts applied:  28
Zero-half cuts applied:  95
Lift and project cuts applied:  2
Gomory fractional cuts applied:  16

Root node processing (before b&c):
  Real time             =    0.53 sec. (106.91 ticks)
Parallel b&c, 24 threads:
  Real time             =    0.00 sec. (0.00 ticks)
  Sync time (average)   =    0.00 sec.
  Wait time (average)   =    0.00 sec.
                          ------------
Total (root+branch&cut) =    0.53 sec. (106.91 ticks)

Solution status = Optimal
Solution LB = 13
Solution UB = 13
Runtime = 0.534447 seconds
	Command being timed: "/home/min/git_repos/CS598MEBProject/CNT-ILP/build/cnt -s 2 ./output/k6_n40/simC_c1_k6_n40_u3_s1_del02.input-left.cnp"
	User time (seconds): 8.55
	System time (seconds): 0.13
	Percent of CPU this job got: 1475%
	Elapsed (wall clock) time (h:mm:ss or m:ss): 0:00.58
	Average shared text size (kbytes): 0
	Average unshared data size (kbytes): 0
	Average stack size (kbytes): 0
	Average total size (kbytes): 0
	Maximum resident set size (kbytes): 99092
	Average resident set size (kbytes): 0
	Major (requiring I/O) page faults: 0
	Minor (reclaiming a frame) page faults: 21700
	Voluntary context switches: 4399
	Involuntary context switches: 956
	Swaps: 0
	File system inputs: 0
	File system outputs: 16
	Socket messages sent: 0
	Socket messages received: 0
	Signals delivered: 0
	Page size (bytes): 4096
	Exit status: 0
